c instance by G2
c solution = 0110011000110101010001110
c Known solution cost is 1354 
p cnf 25 30
w 35 86 44 89 56 92 99 24 4 83 75 52 30 72 39 6 94 84 15 21 35 83 53 77 6
-13 -14 -23 0
-2 21 -8 0
-2 -5 -12 0
-7 6 -23 0
15 19 7 0
7 20 16 0
-6 -12 -8 0
7 15 -3 0
-12 -11 -15 0
16 -18 -6 0
2 -24 15 0
1 3 19 0
-24 8 -21 0
-18 17 22 0
-9 17 -16 0
9 24 15 0
17 -12 -19 0
13 -25 -22 0
-16 10 -1 0
-22 11 -2 0
14 -19 -18 0
-3 -10 -18 0
5 -24 16 0
20 1 -4 0
15 14 9 0
-11 -3 12 0
23 10 -3 0
18 -12 10 0
20 -17 -11 0
-20 4 -22 0
